p cnf 112 434
-1 -2 3 0
-4 -5 6 0
-7 -8 9 0
-1 -10 11 0
-4 -12 13 0
-7 -14 15 0
-16 -17 18 0
-3 -19 20 0
-6 -21 22 0
-16 -23 24 0
-3 -25 26 0
-6 -27 28 0
-29 -30 31 0
-11 -32 33 0
-13 -34 35 0
-29 -36 37 0
-11 -38 39 0
-13 -40 41 0
-42 -43 3 0
-18 -44 6 0
-20 -45 9 0
-42 -46 47 0
-18 -48 49 0
-20 -50 51 0
-52 -53 54 0
-24 -55 56 0
-26 -57 58 0
-52 -59 60 0
-24 -61 62 0
-26 -63 64 0
-65 -66 67 0
-31 -68 69 0
-33 -70 71 0
-65 -72 73 0
-31 -74 75 0
-33 -76 77 0
-78 -79 11 0
-37 -80 13 0
-39 -81 15 0
-78 -82 83 0
-37 -84 85 0
-39 -86 87 0
-88 -89 47 0
-47 -90 49 0
-49 -91 51 0
-92 -93 54 0
-54 -94 56 0
-56 -95 58 0
-96 -97 60 0
-60 -98 62 0
-62 -99 64 0
-100 -101 67 0
-67 -102 69 0
-69 -103 71 0
-104 -105 73 0
-73 -106 75 0
-75 -107 77 0
-108 -109 83 0
-83 -110 85 0
-85 -111 87 0
1 0
88 47 49 51 0
-1 -16 0
-1 -29 0
-1 -42 0
-1 -52 0
-1 -65 0
-1 -78 0
-1 -88 0
-1 -92 0
-1 -96 0
-1 -100 0
-1 -104 0
-1 -108 0
-16 -29 0
-16 -42 0
-16 -52 0
-16 -65 0
-16 -78 0
-16 -88 0
-16 -92 0
-16 -96 0
-16 -100 0
-16 -104 0
-16 -108 0
-29 -42 0
-29 -52 0
-29 -65 0
-29 -78 0
-29 -88 0
-29 -92 0
-29 -96 0
-29 -100 0
-29 -104 0
-29 -108 0
-42 -52 0
-42 -65 0
-42 -78 0
-42 -88 0
-42 -92 0
-42 -96 0
-42 -100 0
-42 -104 0
-42 -108 0
-52 -65 0
-52 -78 0
-52 -88 0
-52 -92 0
-52 -96 0
-52 -100 0
-52 -104 0
-52 -108 0
-65 -78 0
-65 -88 0
-65 -92 0
-65 -96 0
-65 -100 0
-65 -104 0
-65 -108 0
-78 -88 0
-78 -92 0
-78 -96 0
-78 -100 0
-78 -104 0
-78 -108 0
-88 -92 0
-88 -96 0
-88 -100 0
-88 -104 0
-88 -108 0
-92 -96 0
-92 -100 0
-92 -104 0
-92 -108 0
-96 -100 0
-96 -104 0
-96 -108 0
-100 -104 0
-100 -108 0
-104 -108 0
-4 -3 0
-4 -11 0
-4 -18 0
-4 -24 0
-4 -31 0
-4 -37 0
-4 -47 0
-4 -54 0
-4 -60 0
-4 -67 0
-4 -73 0
-4 -83 0
-3 -11 0
-3 -18 0
-3 -24 0
-3 -31 0
-3 -37 0
-3 -47 0
-3 -54 0
-3 -60 0
-3 -67 0
-3 -73 0
-3 -83 0
-11 -18 0
-11 -24 0
-11 -31 0
-11 -37 0
-11 -47 0
-11 -54 0
-11 -60 0
-11 -67 0
-11 -73 0
-11 -83 0
-18 -24 0
-18 -31 0
-18 -37 0
-18 -47 0
-18 -54 0
-18 -60 0
-18 -67 0
-18 -73 0
-18 -83 0
-24 -31 0
-24 -37 0
-24 -47 0
-24 -54 0
-24 -60 0
-24 -67 0
-24 -73 0
-24 -83 0
-31 -37 0
-31 -47 0
-31 -54 0
-31 -60 0
-31 -67 0
-31 -73 0
-31 -83 0
-37 -47 0
-37 -54 0
-37 -60 0
-37 -67 0
-37 -73 0
-37 -83 0
-47 -54 0
-47 -60 0
-47 -67 0
-47 -73 0
-47 -83 0
-54 -60 0
-54 -67 0
-54 -73 0
-54 -83 0
-60 -67 0
-60 -73 0
-60 -83 0
-67 -73 0
-67 -83 0
-73 -83 0
-7 -6 0
-7 -13 0
-7 -20 0
-7 -26 0
-7 -33 0
-7 -39 0
-7 -49 0
-7 -56 0
-7 -62 0
-7 -69 0
-7 -75 0
-7 -85 0
-6 -13 0
-6 -20 0
-6 -26 0
-6 -33 0
-6 -39 0
-6 -49 0
-6 -56 0
-6 -62 0
-6 -69 0
-6 -75 0
-6 -85 0
-13 -20 0
-13 -26 0
-13 -33 0
-13 -39 0
-13 -49 0
-13 -56 0
-13 -62 0
-13 -69 0
-13 -75 0
-13 -85 0
-20 -26 0
-20 -33 0
-20 -39 0
-20 -49 0
-20 -56 0
-20 -62 0
-20 -69 0
-20 -75 0
-20 -85 0
-26 -33 0
-26 -39 0
-26 -49 0
-26 -56 0
-26 -62 0
-26 -69 0
-26 -75 0
-26 -85 0
-33 -39 0
-33 -49 0
-33 -56 0
-33 -62 0
-33 -69 0
-33 -75 0
-33 -85 0
-39 -49 0
-39 -56 0
-39 -62 0
-39 -69 0
-39 -75 0
-39 -85 0
-49 -56 0
-49 -62 0
-49 -69 0
-49 -75 0
-49 -85 0
-56 -62 0
-56 -69 0
-56 -75 0
-56 -85 0
-62 -69 0
-62 -75 0
-62 -85 0
-69 -75 0
-69 -85 0
-75 -85 0
-112 -9 0
-112 -15 0
-112 -22 0
-112 -28 0
-112 -35 0
-112 -41 0
-112 -51 0
-112 -58 0
-112 -64 0
-112 -71 0
-112 -77 0
-112 -87 0
-9 -15 0
-9 -22 0
-9 -28 0
-9 -35 0
-9 -41 0
-9 -51 0
-9 -58 0
-9 -64 0
-9 -71 0
-9 -77 0
-9 -87 0
-15 -22 0
-15 -28 0
-15 -35 0
-15 -41 0
-15 -51 0
-15 -58 0
-15 -64 0
-15 -71 0
-15 -77 0
-15 -87 0
-22 -28 0
-22 -35 0
-22 -41 0
-22 -51 0
-22 -58 0
-22 -64 0
-22 -71 0
-22 -77 0
-22 -87 0
-28 -35 0
-28 -41 0
-28 -51 0
-28 -58 0
-28 -64 0
-28 -71 0
-28 -77 0
-28 -87 0
-35 -41 0
-35 -51 0
-35 -58 0
-35 -64 0
-35 -71 0
-35 -77 0
-35 -87 0
-41 -51 0
-41 -58 0
-41 -64 0
-41 -71 0
-41 -77 0
-41 -87 0
-51 -58 0
-51 -64 0
-51 -71 0
-51 -77 0
-51 -87 0
-58 -64 0
-58 -71 0
-58 -77 0
-58 -87 0
-64 -71 0
-64 -77 0
-64 -87 0
-71 -77 0
-71 -87 0
-77 -87 0
-2 -10 0
-5 -12 0
-8 -14 0
-17 -23 0
-19 -25 0
-21 -27 0
-30 -36 0
-32 -38 0
-34 -40 0
-43 -46 0
-44 -48 0
-45 -50 0
-53 -59 0
-55 -61 0
-57 -63 0
-66 -72 0
-68 -74 0
-70 -76 0
-79 -82 0
-80 -84 0
-81 -86 0
c p weight 2 0.5 0
c p weight -2 1 0
c p weight 5 0.5 0
c p weight -5 1 0
c p weight 8 0.5 0
c p weight -8 1 0
c p weight 10 0.5 0
c p weight -10 1 0
c p weight 12 0.5 0
c p weight -12 1 0
c p weight 14 0.5 0
c p weight -14 1 0
c p weight 17 0.5 0
c p weight -17 1 0
c p weight 19 0.5 0
c p weight -19 1 0
c p weight 21 0.5 0
c p weight -21 1 0
c p weight 23 0.5 0
c p weight -23 1 0
c p weight 25 0.5 0
c p weight -25 1 0
c p weight 27 0.5 0
c p weight -27 1 0
c p weight 30 0.5 0
c p weight -30 1 0
c p weight 32 0.5 0
c p weight -32 1 0
c p weight 34 0.5 0
c p weight -34 1 0
c p weight 36 0.5 0
c p weight -36 1 0
c p weight 38 0.5 0
c p weight -38 1 0
c p weight 40 0.5 0
c p weight -40 1 0
c p weight 43 0.5 0
c p weight -43 1 0
c p weight 44 0.5 0
c p weight -44 1 0
c p weight 45 0.5 0
c p weight -45 1 0
c p weight 46 0.5 0
c p weight -46 1 0
c p weight 48 0.5 0
c p weight -48 1 0
c p weight 50 0.5 0
c p weight -50 1 0
c p weight 53 0.5 0
c p weight -53 1 0
c p weight 55 0.5 0
c p weight -55 1 0
c p weight 57 0.5 0
c p weight -57 1 0
c p weight 59 0.5 0
c p weight -59 1 0
c p weight 61 0.5 0
c p weight -61 1 0
c p weight 63 0.5 0
c p weight -63 1 0
c p weight 66 0.5 0
c p weight -66 1 0
c p weight 68 0.5 0
c p weight -68 1 0
c p weight 70 0.5 0
c p weight -70 1 0
c p weight 72 0.5 0
c p weight -72 1 0
c p weight 74 0.5 0
c p weight -74 1 0
c p weight 76 0.5 0
c p weight -76 1 0
c p weight 79 0.5 0
c p weight -79 1 0
c p weight 80 0.5 0
c p weight -80 1 0
c p weight 81 0.5 0
c p weight -81 1 0
c p weight 82 0.5 0
c p weight -82 1 0
c p weight 84 0.5 0
c p weight -84 1 0
c p weight 86 0.5 0
c p weight -86 1 0
c p weight 89 1.0 0
c p weight -89 1 0
c p weight 90 1.0 0
c p weight -90 1 0
c p weight 91 1.0 0
c p weight -91 1 0
c p weight 93 1.0 0
c p weight -93 1 0
c p weight 94 1.0 0
c p weight -94 1 0
c p weight 95 1.0 0
c p weight -95 1 0
c p weight 97 1.0 0
c p weight -97 1 0
c p weight 98 1.0 0
c p weight -98 1 0
c p weight 99 1.0 0
c p weight -99 1 0
c p weight 101 1.0 0
c p weight -101 1 0
c p weight 102 1.0 0
c p weight -102 1 0
c p weight 103 1.0 0
c p weight -103 1 0
c p weight 105 1.0 0
c p weight -105 1 0
c p weight 106 1.0 0
c p weight -106 1 0
c p weight 107 1.0 0
c p weight -107 1 0
c p weight 109 1.0 0
c p weight -109 1 0
c p weight 110 1.0 0
c p weight -110 1 0
c p weight 111 1.0 0
c p weight -111 1 0
